unsat
(define-fun f ((x (_ BitVec 64))) (_ BitVec 64) (im (bvand #b0000000000000000000000000000000000000000000000000000000000000001 x) (shesh x) (smol (bvor #b0000000000000000000000000000000000000000000000000000000000000001 x))))
0.30user 0.01system 0:00.32elapsed 100%CPU (0avgtext+0avgdata 53500maxresident)k
0inputs+8outputs (0major+8080minor)pagefaults 0swaps
